\ENCODING=ISO-8859-1
\Problem name: ilog.cplex

Minimize
 obj1: 101660 x1 + 104021 x2 + 90222 x3 + 101084 x4 + 104485 x5 + 109035 x6
       + 106387 x7 + 92040 x8 + 98428 x9 + 106215 x10 + 98117 x11 + 105598 x12
       + 94307 x13 + 98698 x14 + 91858 x15 + 104274 x16 + 92803 x17
       + 107295 x18 + 106868 x19 + 107027 x20 + 103027 x21 + 92424 x22
       + 93360 x23 + 96400 x24 + 107762 x25 + 104117 x26 + 105167 x27
       + 92932 x28 + 96442 x29 + 97531 x30 + 103859 x31 + 105535 x32
       + 90108 x33 + 91573 x34 + 99729 x35 + 104520 x36 + 101331 x37
       + 109053 x38 + 109123 x39 + 92571 x40 + 106482 x41 + 98180 x42
       + 107325 x43 + 108176 x44 + 97767 x45 + 97316 x46 + 101513 x47
       + 105944 x48 + 108072 x49 + 107521 x50 + 99269 x51 + 98657 x52
       + 102953 x53 + 100772 x54 + 104721 x55 + 97083 x56 + 90961 x57
       + 95624 x58 + 96572 x59 + 105263 x60 + 101382 x61 + 104082 x62
       + 99332 x63 + 98964 x64 + 97313 x65 + 98594 x66 + 107186 x67 + 90595 x68
       + 103518 x69 + 101716 x70 + 95772 x71 + 95988 x72 + 90264 x73
       + 109444 x74 + 103460 x75 + 102096 x76 + 90942 x77 + 102502 x78
       + 97980 x79 + 93372 x80 + 98784 x81 + 99588 x82 + 95331 x83 + 109370 x84
       + 104379 x85 + 101906 x86 + 96772 x87 + 92874 x88 + 108129 x89
       + 95383 x90 + 99141 x91 + 95833 x92 + 99154 x93 + 90092 x94 + 103927 x95
       + 108805 x96 + 100129 x97 + 105207 x98 + 101303 x99 + 103719 x100
       + 96175 x101 + 92169 x102 + 96780 x103 + 109450 x104 + 95129 x105
       + 108805 x106 + 100178 x107 + 95073 x108 + 106415 x109 + 92748 x110
       + 109278 x111 + 96558 x112 + 96208 x113 + 93801 x114 + 93844 x115
       + 109311 x116 + 97697 x117 + 91773 x118 + 99599 x119 + 101136 x120
       + 98036 x121 + 97627 x122 + 103575 x123 + 109398 x124 + 98729 x125
       + 99435 x126 + 107764 x127 + 109882 x128 + 102835 x129 + 91506 x130
       + 96104 x131 + 94765 x132 + 92400 x133 + 92782 x134 + 104424 x135
       + 105902 x136 + 106746 x137 + 99028 x138 + 92289 x139 + 93973 x140
       + 96611 x141 + 90224 x142 + 102330 x143 + 92020 x144 + 95098 x145
       + 98621 x146 + 100483 x147 + 102087 x148 + 100198 x149 + 104396 x150
       + 108838 x151 + 107999 x152 + 106432 x153 + 93234 x154 + 105943 x155
       + 107528 x156 + 91666 x157 + 108144 x158 + 108193 x159 + 97979 x160
       + 99206 x161 + 96412 x162 + 100303 x163 + 90646 x164 + 94981 x165
       + 91870 x166 + 92912 x167 + 91660 x168 + 104986 x169 + 102483 x170
       + 90984 x171 + 109404 x172 + 109078 x173 + 93771 x174 + 97961 x175
       + 91997 x176 + 103821 x177 + 109689 x178 + 97504 x179 + 102239 x180
       + 101998 x181 + 102517 x182 + 90078 x183 + 106637 x184 + 103175 x185
       + 93873 x186 + 91255 x187 + 106432 x188 + 108178 x189 + 101498 x190
       + 105005 x191 + 103369 x192 + 109281 x193 + 103905 x194 + 96571 x195
       + 102837 x196 + 103277 x197 + 100973 x198 + 90041 x199 + 99617 x200
       + 105530 x201 + 109636 x202 + 101575 x203 + 94704 x204 + 95796 x205
       + 102096 x206 + 98153 x207 + 107651 x208 + 97160 x209 + 101626 x210
       + 101592 x211 + 101459 x212 + 98940 x213 + 103841 x214 + 94957 x215
       + 90174 x216 + 104602 x217 + 109788 x218 + 96505 x219 + 108107 x220
       + 96550 x221 + 101273 x222 + 104874 x223 + 104027 x224 + 101046 x225
       + 98565 x226 + 108491 x227 + 103656 x228 + 108590 x229 + 95935 x230
       + 92038 x231 + 99454 x232 + 97753 x233 + 91453 x234 + 103290 x235
       + 97968 x236 + 103777 x237 + 94052 x238 + 104758 x239 + 101885 x240
       + 106470 x241 + 91929 x242 + 93246 x243 + 97378 x244 + 108202 x245
       + 98810 x246 + 101898 x247 + 90007 x248 + 97202 x249 + 93610 x250
       + 103474 x251 + 108358 x252 + 94427 x253 + 108424 x254 + 92151 x255
       + 93556 x256 + 99638 x257 + 109646 x258 + 92887 x259 + 98411 x260
       + 96786 x261 + 104757 x262 + 107553 x263 + 101649 x264 + 99735 x265
       + 98099 x266 + 94319 x267 + 97503 x268 + 93116 x269 + 104761 x270
       + 95649 x271 + 93243 x272 + 90675 x273 + 91261 x274 + 93103 x275
       + 94581 x276 + 96549 x277 + 91874 x278 + 95604 x279 + 96897 x280
       + 93743 x281 + 90274 x282 + 101916 x283 + 108813 x284 + 98440 x285
       + 97580 x286 + 97760 x287 + 93907 x288 + 108788 x289 + 99918 x290
       + 93367 x291 + 106207 x292 + 102489 x293 + 91337 x294 + 98175 x295
       + 95603 x296 + 98739 x297 + 91175 x298 + 106019 x299 + 90417 x300
       + 106121 x301 + 97611 x302 + 104134 x303 + 104551 x304 + 101557 x305
       + 97271 x306 + 94267 x307 + 109077 x308 + 106978 x309 + 96467 x310
       + 108818 x311 + 99773 x312 + 101879 x313 + 94962 x314 + 94946 x315
       + 99513 x316 + 104794 x317 + 106777 x318 + 106504 x319 + 99176 x320
       + 92115 x321 + 96565 x322 + 96231 x323 + 103142 x324 + 108470 x325
       + 105640 x326 + 99130 x327 + 103750 x328 + 107322 x329 + 97759 x330
       + 103961 x331 + 100388 x332 + 107161 x333 + 92313 x334 + 99351 x335
       + 91739 x336 + 106066 x337 + 105708 x338 + 91200 x339 + 108131 x340
       + 105366 x341 + 90500 x342 + 98830 x343 + 95066 x344 + 91757 x345
       + 106217 x346 + 108803 x347 + 108663 x348 + 96473 x349 + 95864 x350
       + 97339 x351 + 99117 x352 + 109974 x353 + 97702 x354 + 104954 x355
       + 99222 x356 + 101076 x357 + 93201 x358 + 100258 x359 + 101578 x360
       + 100323 x361 + 101394 x362 + 92745 x363 + 97030 x364 + 91056 x365
       + 108661 x366 + 102531 x367 + 97948 x368 + 106078 x369 + 108134 x370
       + 100034 x371 + 98171 x372 + 91154 x373 + 102471 x374 + 91051 x375
       + 95864 x376 + 104713 x377 + 101099 x378 + 98823 x379 + 93402 x380
       + 100730 x381 + 93301 x382 + 97818 x383 + 107627 x384 + 102489 x385
       + 109899 x386 + 91462 x387 + 98478 x388 + 106025 x389 + 95011 x390
       + 99257 x391 + 100754 x392 + 109219 x393 + 106072 x394 + 106223 x395
       + 103311 x396 + 105379 x397 + 107702 x398 + 90794 x399 + 100188 x400
       + 108596 x401 + 102955 x402 + 106002 x403 + 98934 x404 + 92217 x405
       + 94142 x406 + 103239 x407 + 92853 x408 + 101529 x409 + 104618 x410
       + 97870 x411 + 105918 x412 + 107033 x413 + 102805 x414 + 101614 x415
       + 101811 x416 + 95689 x417 + 90218 x418 + 107917 x419 + 91792 x420
       + 100099 x421 + 99475 x422 + 105062 x423 + 90845 x424 + 90060 x425
       + 103303 x426 + 109378 x427 + 97984 x428 + 99324 x429 + 103590 x430
       + 94746 x431 + 108753 x432 + 98396 x433 + 103749 x434 + 104256 x435
       + 94785 x436 + 93090 x437 + 98448 x438 + 103667 x439 + 98587 x440
       + 98574 x441 + 98261 x442 + 98912 x443 + 91128 x444 + 100339 x445
       + 100603 x446 + 104253 x447 + 92689 x448 + 105741 x449 + 96061 x450
       + 105344 x451 + 97710 x452 + 98687 x453 + 106398 x454 + 108241 x455
       + 101909 x456 + 99581 x457 + 103385 x458 + 102728 x459 + 103074 x460
       + 102825 x461 + 96056 x462 + 96319 x463 + 95728 x464 + 94976 x465
       + 98044 x466 + 93935 x467 + 104218 x468 + 108072 x469 + 96400 x470
       + 107463 x471 + 98849 x472 + 94716 x473 + 98601 x474 + 99279 x475
       + 95279 x476 + 104148 x477 + 95409 x478 + 94313 x479 + 108706 x480
       + 101233 x481 + 109259 x482 + 106815 x483 + 95892 x484 + 103347 x485
       + 94318 x486 + 103379 x487 + 99658 x488 + 108571 x489 + 99554 x490
       + 107947 x491 + 104014 x492 + 94137 x493 + 109195 x494 + 104685 x495
       + 99202 x496 + 109899 x497 + 94055 x498 + 99014 x499 + 104701 x500
       + 102749 x501 + 109564 x502 + 107933 x503 + 101315 x504 + 104425 x505
       + 100111 x506 + 97047 x507 + 100937 x508 + 106879 x509 + 91152 x510
       + 103677 x511 + 101096 x512 + 101268 x513 + 109480 x514 + 102687 x515
       + 108096 x516 + 104145 x517 + 91566 x518 + 94476 x519 + 99963 x520
       + 97567 x521 + 100101 x522 + 103030 x523 + 98357 x524 + 108633 x525
       + 109631 x526 + 106034 x527 + 107257 x528 + 108318 x529 + 103635 x530
       + 98732 x531 + 95448 x532 + 99525 x533 + 107414 x534 + 98569 x535
       + 109703 x536 + 109907 x537 + 103867 x538 + 108580 x539 + 106042 x540
       + 97571 x541 + 104296 x542 + 96025 x543 + 109719 x544 + 99128 x545
       + 99773 x546 + 103176 x547 + 100540 x548 + 101343 x549 + 95795 x550
       + 102114 x551 + 96755 x552 + 109691 x553 + 103991 x554 + 103878 x555
       + 97714 x556 + 97741 x557 + 97395 x558 + 102333 x559 + 107929 x560
       + 108037 x561 + 107484 x562 + 103848 x563 + 96987 x564 + 108919 x565
       + 108607 x566 + 107657 x567 + 91561 x568 + 101066 x569 + 99287 x570
       + 96209 x571 + 109219 x572 + 103664 x573 + 91753 x574 + 103655 x575
       + 90978 x576 + 96851 x577 + 98608 x578 + 100261 x579 + 102350 x580
       + 94427 x581 + 98669 x582 + 100633 x583 + 91116 x584 + 108833 x585
       + 92778 x586 + 94498 x587 + 94107 x588 + 109010 x589 + 104783 x590
       + 90174 x591 + 95015 x592 + 100960 x593 + 102928 x594 + 92938 x595
       + 90574 x596 + 100748 x597 + 92493 x598 + 93153 x599 - 86230 x600
       + 427789 x601 + 376950 x602 + 412864 x603 + 424233 x604 + 372686 x605
       + 374673 x606 + 434685 x607 + 386789 x608 + 391787 x609 + 415465 x610
       + 377114 x611 + 381698 x612 + 392784 x613 + 410298 x614 + 362278 x615
       + 412748 x616 + 379989 x617 + 361957 x618 + 377926 x619 + 428939 x620
       + 409616 x621 + 369219 x622 + 360031 x623 + 433450 x624 + 406678 x625
       + 360519 x626 + 363472 x627 + 374334 x628 + 401924 x629 + 403132 x630
       + 413636 x631 + 382040 x632 + 427937 x633 + 388982 x634 + 426234 x635
       + 437730 x636 + 401738 x637 + 360729 x638 + 384576 x639 + 422670 x640
       + 376913 x641 + 431931 x642 + 413002 x643 + 392793 x644 + 411520 x645
       + 412572 x646 + 362122 x647 + 363887 x648 + 408696 x649 + 436416 x650
       + 385972 x651 + 401665 x652 + 365133 x653 + 379133 x654 + 383140 x655
       + 427301 x656 + 428242 x657 + 376306 x658 + 373379 x659 + 637578 x660
Subject To
 c1:   x11 + x12 + x21 - x32 - x33 + x43 - x47 - x55 + x56 + x58 - x59  = 0
 c2:   x71 + x72 + x81 - x92 - x93 + x103 - x107 - x115 + x116 + x118 - x119
        = -1
 c3:   x131 + x132 + x141 - x152 - x153 + x163 - x167 - x175 + x176 + x178
       - x179  = 0
 c4:   x191 + x192 + x201 - x212 - x213 + x223 - x227 - x235 + x236 + x238
       - x239  = 0
 c5:   x251 + x252 + x261 - x272 - x273 + x283 - x287 - x295 + x296 + x298
       - x299  = 0
 c6:   x311 + x312 + x321 - x332 - x333 + x343 - x347 - x355 + x356 + x358
       - x359  = 0
 c7:   x371 + x372 + x381 - x392 - x393 + x403 - x407 - x415 + x416 + x418
       - x419  = 0
 c8:   x431 + x432 + x441 - x452 - x453 + x463 - x467 - x475 + x476 + x478
       - x479  = 0
 c9:   x491 + x492 + x501 - x512 - x513 + x523 - x527 - x535 + x536 + x538
       - x539  = 0
 c10:  x551 + x552 + x561 - x572 - x573 + x583 - x587 - x595 + x596 + x598
       - x599  = 0
 c11:  - x2 - x4 + x8 + x9 + x17 - x19 - x21 + x30 - x37 + x40 + x41 - x42
       + x47 - x60  = 0
 c12:  - x62 - x64 + x68 + x69 + x77 - x79 - x81 + x90 - x97 + x100 + x101
       - x102 + x107 - x120  = 0
 c13:  - x122 - x124 + x128 + x129 + x137 - x139 - x141 + x150 - x157 + x160
       + x161 - x162 + x167 - x180  = 0
 c14:  - x182 - x184 + x188 + x189 + x197 - x199 - x201 + x210 - x217 + x220
       + x221 - x222 + x227 - x240  = 0
 c15:  - x242 - x244 + x248 + x249 + x257 - x259 - x261 + x270 - x277 + x280
       + x281 - x282 + x287 - x300  = 0
 c16:  - x302 - x304 + x308 + x309 + x317 - x319 - x321 + x330 - x337 + x340
       + x341 - x342 + x347 - x360  = 0
 c17:  - x362 - x364 + x368 + x369 + x377 - x379 - x381 + x390 - x397 + x400
       + x401 - x402 + x407 - x420  = 0
 c18:  - x422 - x424 + x428 + x429 + x437 - x439 - x441 + x450 - x457 + x460
       + x461 - x462 + x467 - x480  = -1
 c19:  - x482 - x484 + x488 + x489 + x497 - x499 - x501 + x510 - x517 + x520
       + x521 - x522 + x527 - x540  = 0
 c20:  - x542 - x544 + x548 + x549 + x557 - x559 - x561 + x570 - x577 + x580
       + x581 - x582 + x587 - x600  = 0
 c21:  - x1 + x5 - x7 - x11 + x22 - x24 - x25 + x28 - x29 + x39 - x40 + x45
       + x49 + x60  = 0
 c22:  - x61 + x65 - x67 - x71 + x82 - x84 - x85 + x88 - x89 + x99 - x100
       + x105 + x109 + x120  = 0
 c23:  - x121 + x125 - x127 - x131 + x142 - x144 - x145 + x148 - x149 + x159
       - x160 + x165 + x169 + x180  = 0
 c24:  - x181 + x185 - x187 - x191 + x202 - x204 - x205 + x208 - x209 + x219
       - x220 + x225 + x229 + x240  = 1
 c25:  - x241 + x245 - x247 - x251 + x262 - x264 - x265 + x268 - x269 + x279
       - x280 + x285 + x289 + x300  = 0
 c26:  - x301 + x305 - x307 - x311 + x322 - x324 - x325 + x328 - x329 + x339
       - x340 + x345 + x349 + x360  = 0
 c27:  - x361 + x365 - x367 - x371 + x382 - x384 - x385 + x388 - x389 + x399
       - x400 + x405 + x409 + x420  = 0
 c28:  - x421 + x425 - x427 - x431 + x442 - x444 - x445 + x448 - x449 + x459
       - x460 + x465 + x469 + x480  = 0
 c29:  - x481 + x485 - x487 - x491 + x502 - x504 - x505 + x508 - x509 + x519
       - x520 + x525 + x529 + x540  = 0
 c30:  - x541 + x545 - x547 - x551 + x562 - x564 - x565 + x568 - x569 + x579
       - x580 + x585 + x589 + x600  = -1
 c31:  - x9 + x14 - x20 + x26 + x27 + x31 + x35 - x38 - x39 - x44 - x46  = 0
 c32:  - x69 + x74 - x80 + x86 + x87 + x91 + x95 - x98 - x99 - x104 - x106  = 1
 c33:  - x129 + x134 - x140 + x146 + x147 + x151 + x155 - x158 - x159 - x164
       - x166  = 0
 c34:  - x189 + x194 - x200 + x206 + x207 + x211 + x215 - x218 - x219 - x224
       - x226  = 0
 c35:  - x249 + x254 - x260 + x266 + x267 + x271 + x275 - x278 - x279 - x284
       - x286  = 0
 c36:  - x309 + x314 - x320 + x326 + x327 + x331 + x335 - x338 - x339 - x344
       - x346  = 0
 c37:  - x369 + x374 - x380 + x386 + x387 + x391 + x395 - x398 - x399 - x404
       - x406  = 0
 c38:  - x429 + x434 - x440 + x446 + x447 + x451 + x455 - x458 - x459 - x464
       - x466  = 0
 c39:  - x489 + x494 - x500 + x506 + x507 + x511 + x515 - x518 - x519 - x524
       - x526  = -1
 c40:  - x549 + x554 - x560 + x566 + x567 + x571 + x575 - x578 - x579 - x584
       - x586  = 0
 c41:  x2 + x3 - x18 + x25 - x26 + x33 + x36 + x38 - x49 - x50 + x51 - x56  = 1
 c42:  x62 + x63 - x78 + x85 - x86 + x93 + x96 + x98 - x109 - x110 + x111
       - x116  = 0
 c43:  x122 + x123 - x138 + x145 - x146 + x153 + x156 + x158 - x169 - x170
       + x171 - x176  = 0
 c44:  x182 + x183 - x198 + x205 - x206 + x213 + x216 + x218 - x229 - x230
       + x231 - x236  = 0
 c45:  x242 + x243 - x258 + x265 - x266 + x273 + x276 + x278 - x289 - x290
       + x291 - x296  = 0
 c46:  x302 + x303 - x318 + x325 - x326 + x333 + x336 + x338 - x349 - x350
       + x351 - x356  = 0
 c47:  x362 + x363 - x378 + x385 - x386 + x393 + x396 + x398 - x409 - x410
       + x411 - x416  = 1
 c48:  x422 + x423 - x438 + x445 - x446 + x453 + x456 + x458 - x469 - x470
       + x471 - x476  = 0
 c49:  x482 + x483 - x498 + x505 - x506 + x513 + x516 + x518 - x529 - x530
       + x531 - x536  = 0
 c50:  x542 + x543 - x558 + x565 - x566 + x573 + x576 + x578 - x589 - x590
       + x591 - x596  = 0
 c51:  - x6 - x12 - x14 + x16 + x18 + x19 + x20 - x23 - x28 + x29 + x32 - x41
       + x54 + x57  = 0
 c52:  - x66 - x72 - x74 + x76 + x78 + x79 + x80 - x83 - x88 + x89 + x92 - x101
       + x114 + x117  = 0
 c53:  - x126 - x132 - x134 + x136 + x138 + x139 + x140 - x143 - x148 + x149
       + x152 - x161 + x174 + x177  = 0
 c54:  - x186 - x192 - x194 + x196 + x198 + x199 + x200 - x203 - x208 + x209
       + x212 - x221 + x234 + x237  = 0
 c55:  - x246 - x252 - x254 + x256 + x258 + x259 + x260 - x263 - x268 + x269
       + x272 - x281 + x294 + x297  = 0
 c56:  - x306 - x312 - x314 + x316 + x318 + x319 + x320 - x323 - x328 + x329
       + x332 - x341 + x354 + x357  = 0
 c57:  - x366 - x372 - x374 + x376 + x378 + x379 + x380 - x383 - x388 + x389
       + x392 - x401 + x414 + x417  = 0
 c58:  - x426 - x432 - x434 + x436 + x438 + x439 + x440 - x443 - x448 + x449
       + x452 - x461 + x474 + x477  = 0
 c59:  - x486 - x492 - x494 + x496 + x498 + x499 + x500 - x503 - x508 + x509
       + x512 - x521 + x534 + x537  = 0
 c60:  - x546 - x552 - x554 + x556 + x558 + x559 + x560 - x563 - x568 + x569
       + x572 - x581 + x594 + x597  = 0
 c61:  x4 - x5 + x7 - x16 - x27 + x34 + x44 + x48 - x52 - x53 + x59  = 0
 c62:  x64 - x65 + x67 - x76 - x87 + x94 + x104 + x108 - x112 - x113 + x119
        = 0
 c63:  x124 - x125 + x127 - x136 - x147 + x154 + x164 + x168 - x172 - x173
       + x179  = 0
 c64:  x184 - x185 + x187 - x196 - x207 + x214 + x224 + x228 - x232 - x233
       + x239  = 0
 c65:  x244 - x245 + x247 - x256 - x267 + x274 + x284 + x288 - x292 - x293
       + x299  = 1
 c66:  x304 - x305 + x307 - x316 - x327 + x334 + x344 + x348 - x352 - x353
       + x359  = 0
 c67:  x364 - x365 + x367 - x376 - x387 + x394 + x404 + x408 - x412 - x413
       + x419  = -1
 c68:  x424 - x425 + x427 - x436 - x447 + x454 + x464 + x468 - x472 - x473
       + x479  = 0
 c69:  x484 - x485 + x487 - x496 - x507 + x514 + x524 + x528 - x532 - x533
       + x539  = 1
 c70:  x544 - x545 + x547 - x556 - x567 + x574 + x584 + x588 - x592 - x593
       + x599  = 1
 c71:  x1 - x10 + x13 - x22 + x23 - x30 - x35 + x42 + x46 - x51 - x54 - x58
        = -1
 c72:  x61 - x70 + x73 - x82 + x83 - x90 - x95 + x102 + x106 - x111 - x114
       - x118  = 0
 c73:  x121 - x130 + x133 - x142 + x143 - x150 - x155 + x162 + x166 - x171
       - x174 - x178  = 0
 c74:  x181 - x190 + x193 - x202 + x203 - x210 - x215 + x222 + x226 - x231
       - x234 - x238  = 0
 c75:  x241 - x250 + x253 - x262 + x263 - x270 - x275 + x282 + x286 - x291
       - x294 - x298  = 0
 c76:  x301 - x310 + x313 - x322 + x323 - x330 - x335 + x342 + x346 - x351
       - x354 - x358  = 0
 c77:  x361 - x370 + x373 - x382 + x383 - x390 - x395 + x402 + x406 - x411
       - x414 - x418  = 0
 c78:  x421 - x430 + x433 - x442 + x443 - x450 - x455 + x462 + x466 - x471
       - x474 - x478  = 0
 c79:  x481 - x490 + x493 - x502 + x503 - x510 - x515 + x522 + x526 - x531
       - x534 - x538  = 0
 c80:  x541 - x550 + x553 - x562 + x563 - x570 - x575 + x582 + x586 - x591
       - x594 - x598  = 0
 c81:  x6 + x10 - x13 + x15 - x17 + x24 - x36 - x43 - x45 - x48 + x53 + x55
        = 0
 c82:  x66 + x70 - x73 + x75 - x77 + x84 - x96 - x103 - x105 - x108 + x113
       + x115  = 0
 c83:  x126 + x130 - x133 + x135 - x137 + x144 - x156 - x163 - x165 - x168
       + x173 + x175  = -1
 c84:  x186 + x190 - x193 + x195 - x197 + x204 - x216 - x223 - x225 - x228
       + x233 + x235  = -1
 c85:  x246 + x250 - x253 + x255 - x257 + x264 - x276 - x283 - x285 - x288
       + x293 + x295  = -1
 c86:  x306 + x310 - x313 + x315 - x317 + x324 - x336 - x343 - x345 - x348
       + x353 + x355  = -1
 c87:  x366 + x370 - x373 + x375 - x377 + x384 - x396 - x403 - x405 - x408
       + x413 + x415  = 0
 c88:  x426 + x430 - x433 + x435 - x437 + x444 - x456 - x463 - x465 - x468
       + x473 + x475  = 1
 c89:  x486 + x490 - x493 + x495 - x497 + x504 - x516 - x523 - x525 - x528
       + x533 + x535  = 0
 c90:  x546 + x550 - x553 + x555 - x557 + x564 - x576 - x583 - x585 - x588
       + x593 + x595  = 0
 c91:  - x3 - x8 - x15 - x31 - x34 + x37 + x50 + x52 - x57  = 0
 c92:  - x63 - x68 - x75 - x91 - x94 + x97 + x110 + x112 - x117  = 0
 c93:  - x123 - x128 - x135 - x151 - x154 + x157 + x170 + x172 - x177  = 1
 c94:  - x183 - x188 - x195 - x211 - x214 + x217 + x230 + x232 - x237  = 0
 c95:  - x243 - x248 - x255 - x271 - x274 + x277 + x290 + x292 - x297  = 0
 c96:  - x303 - x308 - x315 - x331 - x334 + x337 + x350 + x352 - x357  = 1
 c97:  - x363 - x368 - x375 - x391 - x394 + x397 + x410 + x412 - x417  = 0
 c98:  - x423 - x428 - x435 - x451 - x454 + x457 + x470 + x472 - x477  = 0
 c99:  - x483 - x488 - x495 - x511 - x514 + x517 + x530 + x532 - x537  = 0
 c100: - x543 - x548 - x555 - x571 - x574 + x577 + x590 + x592 - x597  = 0
 c101: 4 x1 + 4 x61 + 4 x121 + 4 x181 + 4 x241 + 4 x301 + 4 x361 + 4 x421
       + 4 x481 + 4 x541 - 20 x601 <= 0
 c102: 4 x2 + 4 x62 + 4 x122 + 4 x182 + 4 x242 + 4 x302 + 4 x362 + 4 x422
       + 4 x482 + 4 x542 - 22 x602 <= 0
 c103: 4 x3 + 4 x63 + 4 x123 + 4 x183 + 4 x243 + 4 x303 + 4 x363 + 4 x423
       + 4 x483 + 4 x543 - 18 x603 <= 0
 c104: 4 x4 + 4 x64 + 4 x124 + 4 x184 + 4 x244 + 4 x304 + 4 x364 + 4 x424
       + 4 x484 + 4 x544 - 20 x604 <= 0
 c105: 4 x5 + 4 x65 + 4 x125 + 4 x185 + 4 x245 + 4 x305 + 4 x365 + 4 x425
       + 4 x485 + 4 x545 - 21 x605 <= 0
 c106: 4 x6 + 4 x66 + 4 x126 + 4 x186 + 4 x246 + 4 x306 + 4 x366 + 4 x426
       + 4 x486 + 4 x546 - 18 x606 <= 0
 c107: 4 x7 + 4 x67 + 4 x127 + 4 x187 + 4 x247 + 4 x307 + 4 x367 + 4 x427
       + 4 x487 + 4 x547 - 20 x607 <= 0
 c108: 4 x8 + 4 x68 + 4 x128 + 4 x188 + 4 x248 + 4 x308 + 4 x368 + 4 x428
       + 4 x488 + 4 x548 - 19 x608 <= 0
 c109: 4 x9 + 4 x69 + 4 x129 + 4 x189 + 4 x249 + 4 x309 + 4 x369 + 4 x429
       + 4 x489 + 4 x549 - 20 x609 <= 0
 c110: 4 x10 + 4 x70 + 4 x130 + 4 x190 + 4 x250 + 4 x310 + 4 x370 + 4 x430
       + 4 x490 + 4 x550 - 21 x610 <= 0
 c111: 4 x11 + 4 x71 + 4 x131 + 4 x191 + 4 x251 + 4 x311 + 4 x371 + 4 x431
       + 4 x491 + 4 x551 - 20 x611 <= 0
 c112: 4 x12 + 4 x72 + 4 x132 + 4 x192 + 4 x252 + 4 x312 + 4 x372 + 4 x432
       + 4 x492 + 4 x552 - 21 x612 <= 0
 c113: 4 x13 + 4 x73 + 4 x133 + 4 x193 + 4 x253 + 4 x313 + 4 x373 + 4 x433
       + 4 x493 + 4 x553 - 20 x613 <= 0
 c114: 4 x14 + 4 x74 + 4 x134 + 4 x194 + 4 x254 + 4 x314 + 4 x374 + 4 x434
       + 4 x494 + 4 x554 - 21 x614 <= 0
 c115: 4 x15 + 4 x75 + 4 x135 + 4 x195 + 4 x255 + 4 x315 + 4 x375 + 4 x435
       + 4 x495 + 4 x555 - 20 x615 <= 0
 c116: 4 x16 + 4 x76 + 4 x136 + 4 x196 + 4 x256 + 4 x316 + 4 x376 + 4 x436
       + 4 x496 + 4 x556 - 22 x616 <= 0
 c117: 4 x17 + 4 x77 + 4 x137 + 4 x197 + 4 x257 + 4 x317 + 4 x377 + 4 x437
       + 4 x497 + 4 x557 - 18 x617 <= 0
 c118: 4 x18 + 4 x78 + 4 x138 + 4 x198 + 4 x258 + 4 x318 + 4 x378 + 4 x438
       + 4 x498 + 4 x558 - 21 x618 <= 0
 c119: 4 x19 + 4 x79 + 4 x139 + 4 x199 + 4 x259 + 4 x319 + 4 x379 + 4 x439
       + 4 x499 + 4 x559 - 18 x619 <= 0
 c120: 4 x20 + 4 x80 + 4 x140 + 4 x200 + 4 x260 + 4 x320 + 4 x380 + 4 x440
       + 4 x500 + 4 x560 - 19 x620 <= 0
 c121: 4 x21 + 4 x81 + 4 x141 + 4 x201 + 4 x261 + 4 x321 + 4 x381 + 4 x441
       + 4 x501 + 4 x561 - 21 x621 <= 0
 c122: 4 x22 + 4 x82 + 4 x142 + 4 x202 + 4 x262 + 4 x322 + 4 x382 + 4 x442
       + 4 x502 + 4 x562 - 19 x622 <= 0
 c123: 4 x23 + 4 x83 + 4 x143 + 4 x203 + 4 x263 + 4 x323 + 4 x383 + 4 x443
       + 4 x503 + 4 x563 - 21 x623 <= 0
 c124: 4 x24 + 4 x84 + 4 x144 + 4 x204 + 4 x264 + 4 x324 + 4 x384 + 4 x444
       + 4 x504 + 4 x564 - 20 x624 <= 0
 c125: 4 x25 + 4 x85 + 4 x145 + 4 x205 + 4 x265 + 4 x325 + 4 x385 + 4 x445
       + 4 x505 + 4 x565 - 19 x625 <= 0
 c126: 4 x26 + 4 x86 + 4 x146 + 4 x206 + 4 x266 + 4 x326 + 4 x386 + 4 x446
       + 4 x506 + 4 x566 - 19 x626 <= 0
 c127: 4 x27 + 4 x87 + 4 x147 + 4 x207 + 4 x267 + 4 x327 + 4 x387 + 4 x447
       + 4 x507 + 4 x567 - 19 x627 <= 0
 c128: 4 x28 + 4 x88 + 4 x148 + 4 x208 + 4 x268 + 4 x328 + 4 x388 + 4 x448
       + 4 x508 + 4 x568 - 21 x628 <= 0
 c129: 4 x29 + 4 x89 + 4 x149 + 4 x209 + 4 x269 + 4 x329 + 4 x389 + 4 x449
       + 4 x509 + 4 x569 - 20 x629 <= 0
 c130: 4 x30 + 4 x90 + 4 x150 + 4 x210 + 4 x270 + 4 x330 + 4 x390 + 4 x450
       + 4 x510 + 4 x570 - 21 x630 <= 0
 c131: 4 x31 + 4 x91 + 4 x151 + 4 x211 + 4 x271 + 4 x331 + 4 x391 + 4 x451
       + 4 x511 + 4 x571 - 21 x631 <= 0
 c132: 4 x32 + 4 x92 + 4 x152 + 4 x212 + 4 x272 + 4 x332 + 4 x392 + 4 x452
       + 4 x512 + 4 x572 - 19 x632 <= 0
 c133: 4 x33 + 4 x93 + 4 x153 + 4 x213 + 4 x273 + 4 x333 + 4 x393 + 4 x453
       + 4 x513 + 4 x573 - 19 x633 <= 0
 c134: 4 x34 + 4 x94 + 4 x154 + 4 x214 + 4 x274 + 4 x334 + 4 x394 + 4 x454
       + 4 x514 + 4 x574 - 18 x634 <= 0
 c135: 4 x35 + 4 x95 + 4 x155 + 4 x215 + 4 x275 + 4 x335 + 4 x395 + 4 x455
       + 4 x515 + 4 x575 - 22 x635 <= 0
 c136: 4 x36 + 4 x96 + 4 x156 + 4 x216 + 4 x276 + 4 x336 + 4 x396 + 4 x456
       + 4 x516 + 4 x576 - 20 x636 <= 0
 c137: 4 x37 + 4 x97 + 4 x157 + 4 x217 + 4 x277 + 4 x337 + 4 x397 + 4 x457
       + 4 x517 + 4 x577 - 21 x637 <= 0
 c138: 4 x38 + 4 x98 + 4 x158 + 4 x218 + 4 x278 + 4 x338 + 4 x398 + 4 x458
       + 4 x518 + 4 x578 - 20 x638 <= 0
 c139: 4 x39 + 4 x99 + 4 x159 + 4 x219 + 4 x279 + 4 x339 + 4 x399 + 4 x459
       + 4 x519 + 4 x579 - 19 x639 <= 0
 c140: 4 x40 + 4 x100 + 4 x160 + 4 x220 + 4 x280 + 4 x340 + 4 x400 + 4 x460
       + 4 x520 + 4 x580 - 20 x640 <= 0
 c141: 4 x41 + 4 x101 + 4 x161 + 4 x221 + 4 x281 + 4 x341 + 4 x401 + 4 x461
       + 4 x521 + 4 x581 - 19 x641 <= 0
 c142: 4 x42 + 4 x102 + 4 x162 + 4 x222 + 4 x282 + 4 x342 + 4 x402 + 4 x462
       + 4 x522 + 4 x582 - 18 x642 <= 0
 c143: 4 x43 + 4 x103 + 4 x163 + 4 x223 + 4 x283 + 4 x343 + 4 x403 + 4 x463
       + 4 x523 + 4 x583 - 20 x643 <= 0
 c144: 4 x44 + 4 x104 + 4 x164 + 4 x224 + 4 x284 + 4 x344 + 4 x404 + 4 x464
       + 4 x524 + 4 x584 - 22 x644 <= 0
 c145: 4 x45 + 4 x105 + 4 x165 + 4 x225 + 4 x285 + 4 x345 + 4 x405 + 4 x465
       + 4 x525 + 4 x585 - 18 x645 <= 0
 c146: 4 x46 + 4 x106 + 4 x166 + 4 x226 + 4 x286 + 4 x346 + 4 x406 + 4 x466
       + 4 x526 + 4 x586 - 20 x646 <= 0
 c147: 4 x47 + 4 x107 + 4 x167 + 4 x227 + 4 x287 + 4 x347 + 4 x407 + 4 x467
       + 4 x527 + 4 x587 - 19 x647 <= 0
 c148: 4 x48 + 4 x108 + 4 x168 + 4 x228 + 4 x288 + 4 x348 + 4 x408 + 4 x468
       + 4 x528 + 4 x588 - 18 x648 <= 0
 c149: 4 x49 + 4 x109 + 4 x169 + 4 x229 + 4 x289 + 4 x349 + 4 x409 + 4 x469
       + 4 x529 + 4 x589 - 21 x649 <= 0
 c150: 4 x50 + 4 x110 + 4 x170 + 4 x230 + 4 x290 + 4 x350 + 4 x410 + 4 x470
       + 4 x530 + 4 x590 - 18 x650 <= 0
 c151: 4 x51 + 4 x111 + 4 x171 + 4 x231 + 4 x291 + 4 x351 + 4 x411 + 4 x471
       + 4 x531 + 4 x591 - 21 x651 <= 0
 c152: 4 x52 + 4 x112 + 4 x172 + 4 x232 + 4 x292 + 4 x352 + 4 x412 + 4 x472
       + 4 x532 + 4 x592 - 22 x652 <= 0
 c153: 4 x53 + 4 x113 + 4 x173 + 4 x233 + 4 x293 + 4 x353 + 4 x413 + 4 x473
       + 4 x533 + 4 x593 - 20 x653 <= 0
 c154: 4 x54 + 4 x114 + 4 x174 + 4 x234 + 4 x294 + 4 x354 + 4 x414 + 4 x474
       + 4 x534 + 4 x594 - 22 x654 <= 0
 c155: 4 x55 + 4 x115 + 4 x175 + 4 x235 + 4 x295 + 4 x355 + 4 x415 + 4 x475
       + 4 x535 + 4 x595 - 20 x655 <= 0
 c156: 4 x56 + 4 x116 + 4 x176 + 4 x236 + 4 x296 + 4 x356 + 4 x416 + 4 x476
       + 4 x536 + 4 x596 - 21 x656 <= 0
 c157: 4 x57 + 4 x117 + 4 x177 + 4 x237 + 4 x297 + 4 x357 + 4 x417 + 4 x477
       + 4 x537 + 4 x597 - 22 x657 <= 0
 c158: 4 x58 + 4 x118 + 4 x178 + 4 x238 + 4 x298 + 4 x358 + 4 x418 + 4 x478
       + 4 x538 + 4 x598 - 21 x658 <= 0
 c159: 4 x59 + 4 x119 + 4 x179 + 4 x239 + 4 x299 + 4 x359 + 4 x419 + 4 x479
       + 4 x539 + 4 x599 - 21 x659 <= 0
 c160: 4 x60 + 4 x120 + 4 x180 + 4 x240 + 4 x300 + 4 x360 + 4 x420 + 4 x480
       + 4 x540 + 4 x600 - 19 x660 <= 0
Bounds
 0 <= x1 <= 1
 0 <= x2 <= 1
 0 <= x3 <= 1
 0 <= x4 <= 1
 0 <= x5 <= 1
 0 <= x6 <= 1
 0 <= x7 <= 1
 0 <= x8 <= 1
 0 <= x9 <= 1
 0 <= x10 <= 1
 0 <= x11 <= 1
 0 <= x12 <= 1
 0 <= x13 <= 1
 0 <= x14 <= 1
 0 <= x15 <= 1
 0 <= x16 <= 1
 0 <= x17 <= 1
 0 <= x18 <= 1
 0 <= x19 <= 1
 0 <= x20 <= 1
 0 <= x21 <= 1
 0 <= x22 <= 1
 0 <= x23 <= 1
 0 <= x24 <= 1
 0 <= x25 <= 1
 0 <= x26 <= 1
 0 <= x27 <= 1
 0 <= x28 <= 1
 0 <= x29 <= 1
 0 <= x30 <= 1
 0 <= x31 <= 1
 0 <= x32 <= 1
 0 <= x33 <= 1
 0 <= x34 <= 1
 0 <= x35 <= 1
 0 <= x36 <= 1
 0 <= x37 <= 1
 0 <= x38 <= 1
 0 <= x39 <= 1
 0 <= x40 <= 1
 0 <= x41 <= 1
 0 <= x42 <= 1
 0 <= x43 <= 1
 0 <= x44 <= 1
 0 <= x45 <= 1
 0 <= x46 <= 1
 0 <= x47 <= 1
 0 <= x48 <= 1
 0 <= x49 <= 1
 0 <= x50 <= 1
 0 <= x51 <= 1
 0 <= x52 <= 1
 0 <= x53 <= 1
 0 <= x54 <= 1
 0 <= x55 <= 1
 0 <= x56 <= 1
 0 <= x57 <= 1
 0 <= x58 <= 1
 0 <= x59 <= 1
 0 <= x60 <= 1
 0 <= x61 <= 1
 0 <= x62 <= 1
 0 <= x63 <= 1
 0 <= x64 <= 1
 0 <= x65 <= 1
 0 <= x66 <= 1
 0 <= x67 <= 1
 0 <= x68 <= 1
 0 <= x69 <= 1
 0 <= x70 <= 1
 0 <= x71 <= 1
 0 <= x72 <= 1
 0 <= x73 <= 1
 0 <= x74 <= 1
 0 <= x75 <= 1
 0 <= x76 <= 1
 0 <= x77 <= 1
 0 <= x78 <= 1
 0 <= x79 <= 1
 0 <= x80 <= 1
 0 <= x81 <= 1
 0 <= x82 <= 1
 0 <= x83 <= 1
 0 <= x84 <= 1
 0 <= x85 <= 1
 0 <= x86 <= 1
 0 <= x87 <= 1
 0 <= x88 <= 1
 0 <= x89 <= 1
 0 <= x90 <= 1
 0 <= x91 <= 1
 0 <= x92 <= 1
 0 <= x93 <= 1
 0 <= x94 <= 1
 0 <= x95 <= 1
 0 <= x96 <= 1
 0 <= x97 <= 1
 0 <= x98 <= 1
 0 <= x99 <= 1
 0 <= x100 <= 1
 0 <= x101 <= 1
 0 <= x102 <= 1
 0 <= x103 <= 1
 0 <= x104 <= 1
 0 <= x105 <= 1
 0 <= x106 <= 1
 0 <= x107 <= 1
 0 <= x108 <= 1
 0 <= x109 <= 1
 0 <= x110 <= 1
 0 <= x111 <= 1
 0 <= x112 <= 1
 0 <= x113 <= 1
 0 <= x114 <= 1
 0 <= x115 <= 1
 0 <= x116 <= 1
 0 <= x117 <= 1
 0 <= x118 <= 1
 0 <= x119 <= 1
 0 <= x120 <= 1
 0 <= x121 <= 1
 0 <= x122 <= 1
 0 <= x123 <= 1
 0 <= x124 <= 1
 0 <= x125 <= 1
 0 <= x126 <= 1
 0 <= x127 <= 1
 0 <= x128 <= 1
 0 <= x129 <= 1
 0 <= x130 <= 1
 0 <= x131 <= 1
 0 <= x132 <= 1
 0 <= x133 <= 1
 0 <= x134 <= 1
 0 <= x135 <= 1
 0 <= x136 <= 1
 0 <= x137 <= 1
 0 <= x138 <= 1
 0 <= x139 <= 1
 0 <= x140 <= 1
 0 <= x141 <= 1
 0 <= x142 <= 1
 0 <= x143 <= 1
 0 <= x144 <= 1
 0 <= x145 <= 1
 0 <= x146 <= 1
 0 <= x147 <= 1
 0 <= x148 <= 1
 0 <= x149 <= 1
 0 <= x150 <= 1
 0 <= x151 <= 1
 0 <= x152 <= 1
 0 <= x153 <= 1
 0 <= x154 <= 1
 0 <= x155 <= 1
 0 <= x156 <= 1
 0 <= x157 <= 1
 0 <= x158 <= 1
 0 <= x159 <= 1
 0 <= x160 <= 1
 0 <= x161 <= 1
 0 <= x162 <= 1
 0 <= x163 <= 1
 0 <= x164 <= 1
 0 <= x165 <= 1
 0 <= x166 <= 1
 0 <= x167 <= 1
 0 <= x168 <= 1
 0 <= x169 <= 1
 0 <= x170 <= 1
 0 <= x171 <= 1
 0 <= x172 <= 1
 0 <= x173 <= 1
 0 <= x174 <= 1
 0 <= x175 <= 1
 0 <= x176 <= 1
 0 <= x177 <= 1
 0 <= x178 <= 1
 0 <= x179 <= 1
 0 <= x180 <= 1
 0 <= x181 <= 1
 0 <= x182 <= 1
 0 <= x183 <= 1
 0 <= x184 <= 1
 0 <= x185 <= 1
 0 <= x186 <= 1
 0 <= x187 <= 1
 0 <= x188 <= 1
 0 <= x189 <= 1
 0 <= x190 <= 1
 0 <= x191 <= 1
 0 <= x192 <= 1
 0 <= x193 <= 1
 0 <= x194 <= 1
 0 <= x195 <= 1
 0 <= x196 <= 1
 0 <= x197 <= 1
 0 <= x198 <= 1
 0 <= x199 <= 1
 0 <= x200 <= 1
 0 <= x201 <= 1
 0 <= x202 <= 1
 0 <= x203 <= 1
 0 <= x204 <= 1
 0 <= x205 <= 1
 0 <= x206 <= 1
 0 <= x207 <= 1
 0 <= x208 <= 1
 0 <= x209 <= 1
 0 <= x210 <= 1
 0 <= x211 <= 1
 0 <= x212 <= 1
 0 <= x213 <= 1
 0 <= x214 <= 1
 0 <= x215 <= 1
 0 <= x216 <= 1
 0 <= x217 <= 1
 0 <= x218 <= 1
 0 <= x219 <= 1
 0 <= x220 <= 1
 0 <= x221 <= 1
 0 <= x222 <= 1
 0 <= x223 <= 1
 0 <= x224 <= 1
 0 <= x225 <= 1
 0 <= x226 <= 1
 0 <= x227 <= 1
 0 <= x228 <= 1
 0 <= x229 <= 1
 0 <= x230 <= 1
 0 <= x231 <= 1
 0 <= x232 <= 1
 0 <= x233 <= 1
 0 <= x234 <= 1
 0 <= x235 <= 1
 0 <= x236 <= 1
 0 <= x237 <= 1
 0 <= x238 <= 1
 0 <= x239 <= 1
 0 <= x240 <= 1
 0 <= x241 <= 1
 0 <= x242 <= 1
 0 <= x243 <= 1
 0 <= x244 <= 1
 0 <= x245 <= 1
 0 <= x246 <= 1
 0 <= x247 <= 1
 0 <= x248 <= 1
 0 <= x249 <= 1
 0 <= x250 <= 1
 0 <= x251 <= 1
 0 <= x252 <= 1
 0 <= x253 <= 1
 0 <= x254 <= 1
 0 <= x255 <= 1
 0 <= x256 <= 1
 0 <= x257 <= 1
 0 <= x258 <= 1
 0 <= x259 <= 1
 0 <= x260 <= 1
 0 <= x261 <= 1
 0 <= x262 <= 1
 0 <= x263 <= 1
 0 <= x264 <= 1
 0 <= x265 <= 1
 0 <= x266 <= 1
 0 <= x267 <= 1
 0 <= x268 <= 1
 0 <= x269 <= 1
 0 <= x270 <= 1
 0 <= x271 <= 1
 0 <= x272 <= 1
 0 <= x273 <= 1
 0 <= x274 <= 1
 0 <= x275 <= 1
 0 <= x276 <= 1
 0 <= x277 <= 1
 0 <= x278 <= 1
 0 <= x279 <= 1
 0 <= x280 <= 1
 0 <= x281 <= 1
 0 <= x282 <= 1
 0 <= x283 <= 1
 0 <= x284 <= 1
 0 <= x285 <= 1
 0 <= x286 <= 1
 0 <= x287 <= 1
 0 <= x288 <= 1
 0 <= x289 <= 1
 0 <= x290 <= 1
 0 <= x291 <= 1
 0 <= x292 <= 1
 0 <= x293 <= 1
 0 <= x294 <= 1
 0 <= x295 <= 1
 0 <= x296 <= 1
 0 <= x297 <= 1
 0 <= x298 <= 1
 0 <= x299 <= 1
 0 <= x300 <= 1
 0 <= x301 <= 1
 0 <= x302 <= 1
 0 <= x303 <= 1
 0 <= x304 <= 1
 0 <= x305 <= 1
 0 <= x306 <= 1
 0 <= x307 <= 1
 0 <= x308 <= 1
 0 <= x309 <= 1
 0 <= x310 <= 1
 0 <= x311 <= 1
 0 <= x312 <= 1
 0 <= x313 <= 1
 0 <= x314 <= 1
 0 <= x315 <= 1
 0 <= x316 <= 1
 0 <= x317 <= 1
 0 <= x318 <= 1
 0 <= x319 <= 1
 0 <= x320 <= 1
 0 <= x321 <= 1
 0 <= x322 <= 1
 0 <= x323 <= 1
 0 <= x324 <= 1
 0 <= x325 <= 1
 0 <= x326 <= 1
 0 <= x327 <= 1
 0 <= x328 <= 1
 0 <= x329 <= 1
 0 <= x330 <= 1
 0 <= x331 <= 1
 0 <= x332 <= 1
 0 <= x333 <= 1
 0 <= x334 <= 1
 0 <= x335 <= 1
 0 <= x336 <= 1
 0 <= x337 <= 1
 0 <= x338 <= 1
 0 <= x339 <= 1
 0 <= x340 <= 1
 0 <= x341 <= 1
 0 <= x342 <= 1
 0 <= x343 <= 1
 0 <= x344 <= 1
 0 <= x345 <= 1
 0 <= x346 <= 1
 0 <= x347 <= 1
 0 <= x348 <= 1
 0 <= x349 <= 1
 0 <= x350 <= 1
 0 <= x351 <= 1
 0 <= x352 <= 1
 0 <= x353 <= 1
 0 <= x354 <= 1
 0 <= x355 <= 1
 0 <= x356 <= 1
 0 <= x357 <= 1
 0 <= x358 <= 1
 0 <= x359 <= 1
 0 <= x360 <= 1
 0 <= x361 <= 1
 0 <= x362 <= 1
 0 <= x363 <= 1
 0 <= x364 <= 1
 0 <= x365 <= 1
 0 <= x366 <= 1
 0 <= x367 <= 1
 0 <= x368 <= 1
 0 <= x369 <= 1
 0 <= x370 <= 1
 0 <= x371 <= 1
 0 <= x372 <= 1
 0 <= x373 <= 1
 0 <= x374 <= 1
 0 <= x375 <= 1
 0 <= x376 <= 1
 0 <= x377 <= 1
 0 <= x378 <= 1
 0 <= x379 <= 1
 0 <= x380 <= 1
 0 <= x381 <= 1
 0 <= x382 <= 1
 0 <= x383 <= 1
 0 <= x384 <= 1
 0 <= x385 <= 1
 0 <= x386 <= 1
 0 <= x387 <= 1
 0 <= x388 <= 1
 0 <= x389 <= 1
 0 <= x390 <= 1
 0 <= x391 <= 1
 0 <= x392 <= 1
 0 <= x393 <= 1
 0 <= x394 <= 1
 0 <= x395 <= 1
 0 <= x396 <= 1
 0 <= x397 <= 1
 0 <= x398 <= 1
 0 <= x399 <= 1
 0 <= x400 <= 1
 0 <= x401 <= 1
 0 <= x402 <= 1
 0 <= x403 <= 1
 0 <= x404 <= 1
 0 <= x405 <= 1
 0 <= x406 <= 1
 0 <= x407 <= 1
 0 <= x408 <= 1
 0 <= x409 <= 1
 0 <= x410 <= 1
 0 <= x411 <= 1
 0 <= x412 <= 1
 0 <= x413 <= 1
 0 <= x414 <= 1
 0 <= x415 <= 1
 0 <= x416 <= 1
 0 <= x417 <= 1
 0 <= x418 <= 1
 0 <= x419 <= 1
 0 <= x420 <= 1
 0 <= x421 <= 1
 0 <= x422 <= 1
 0 <= x423 <= 1
 0 <= x424 <= 1
 0 <= x425 <= 1
 0 <= x426 <= 1
 0 <= x427 <= 1
 0 <= x428 <= 1
 0 <= x429 <= 1
 0 <= x430 <= 1
 0 <= x431 <= 1
 0 <= x432 <= 1
 0 <= x433 <= 1
 0 <= x434 <= 1
 0 <= x435 <= 1
 0 <= x436 <= 1
 0 <= x437 <= 1
 0 <= x438 <= 1
 0 <= x439 <= 1
 0 <= x440 <= 1
 0 <= x441 <= 1
 0 <= x442 <= 1
 0 <= x443 <= 1
 0 <= x444 <= 1
 0 <= x445 <= 1
 0 <= x446 <= 1
 0 <= x447 <= 1
 0 <= x448 <= 1
 0 <= x449 <= 1
 0 <= x450 <= 1
 0 <= x451 <= 1
 0 <= x452 <= 1
 0 <= x453 <= 1
 0 <= x454 <= 1
 0 <= x455 <= 1
 0 <= x456 <= 1
 0 <= x457 <= 1
 0 <= x458 <= 1
 0 <= x459 <= 1
 0 <= x460 <= 1
 0 <= x461 <= 1
 0 <= x462 <= 1
 0 <= x463 <= 1
 0 <= x464 <= 1
 0 <= x465 <= 1
 0 <= x466 <= 1
 0 <= x467 <= 1
 0 <= x468 <= 1
 0 <= x469 <= 1
 0 <= x470 <= 1
 0 <= x471 <= 1
 0 <= x472 <= 1
 0 <= x473 <= 1
 0 <= x474 <= 1
 0 <= x475 <= 1
 0 <= x476 <= 1
 0 <= x477 <= 1
 0 <= x478 <= 1
 0 <= x479 <= 1
 0 <= x480 <= 1
 0 <= x481 <= 1
 0 <= x482 <= 1
 0 <= x483 <= 1
 0 <= x484 <= 1
 0 <= x485 <= 1
 0 <= x486 <= 1
 0 <= x487 <= 1
 0 <= x488 <= 1
 0 <= x489 <= 1
 0 <= x490 <= 1
 0 <= x491 <= 1
 0 <= x492 <= 1
 0 <= x493 <= 1
 0 <= x494 <= 1
 0 <= x495 <= 1
 0 <= x496 <= 1
 0 <= x497 <= 1
 0 <= x498 <= 1
 0 <= x499 <= 1
 0 <= x500 <= 1
 0 <= x501 <= 1
 0 <= x502 <= 1
 0 <= x503 <= 1
 0 <= x504 <= 1
 0 <= x505 <= 1
 0 <= x506 <= 1
 0 <= x507 <= 1
 0 <= x508 <= 1
 0 <= x509 <= 1
 0 <= x510 <= 1
 0 <= x511 <= 1
 0 <= x512 <= 1
 0 <= x513 <= 1
 0 <= x514 <= 1
 0 <= x515 <= 1
 0 <= x516 <= 1
 0 <= x517 <= 1
 0 <= x518 <= 1
 0 <= x519 <= 1
 0 <= x520 <= 1
 0 <= x521 <= 1
 0 <= x522 <= 1
 0 <= x523 <= 1
 0 <= x524 <= 1
 0 <= x525 <= 1
 0 <= x526 <= 1
 0 <= x527 <= 1
 0 <= x528 <= 1
 0 <= x529 <= 1
 0 <= x530 <= 1
 0 <= x531 <= 1
 0 <= x532 <= 1
 0 <= x533 <= 1
 0 <= x534 <= 1
 0 <= x535 <= 1
 0 <= x536 <= 1
 0 <= x537 <= 1
 0 <= x538 <= 1
 0 <= x539 <= 1
 0 <= x540 <= 1
 0 <= x541 <= 1
 0 <= x542 <= 1
 0 <= x543 <= 1
 0 <= x544 <= 1
 0 <= x545 <= 1
 0 <= x546 <= 1
 0 <= x547 <= 1
 0 <= x548 <= 1
 0 <= x549 <= 1
 0 <= x550 <= 1
 0 <= x551 <= 1
 0 <= x552 <= 1
 0 <= x553 <= 1
 0 <= x554 <= 1
 0 <= x555 <= 1
 0 <= x556 <= 1
 0 <= x557 <= 1
 0 <= x558 <= 1
 0 <= x559 <= 1
 0 <= x560 <= 1
 0 <= x561 <= 1
 0 <= x562 <= 1
 0 <= x563 <= 1
 0 <= x564 <= 1
 0 <= x565 <= 1
 0 <= x566 <= 1
 0 <= x567 <= 1
 0 <= x568 <= 1
 0 <= x569 <= 1
 0 <= x570 <= 1
 0 <= x571 <= 1
 0 <= x572 <= 1
 0 <= x573 <= 1
 0 <= x574 <= 1
 0 <= x575 <= 1
 0 <= x576 <= 1
 0 <= x577 <= 1
 0 <= x578 <= 1
 0 <= x579 <= 1
 0 <= x580 <= 1
 0 <= x581 <= 1
 0 <= x582 <= 1
 0 <= x583 <= 1
 0 <= x584 <= 1
 0 <= x585 <= 1
 0 <= x586 <= 1
 0 <= x587 <= 1
 0 <= x588 <= 1
 0 <= x589 <= 1
 0 <= x590 <= 1
 0 <= x591 <= 1
 0 <= x592 <= 1
 0 <= x593 <= 1
 0 <= x594 <= 1
 0 <= x595 <= 1
 0 <= x596 <= 1
 0 <= x597 <= 1
 0 <= x598 <= 1
 0 <= x599 <= 1
 0 <= x600 <= 1
 0 <= x601 <= 1
 0 <= x602 <= 1
 0 <= x603 <= 1
 0 <= x604 <= 1
 0 <= x605 <= 1
 0 <= x606 <= 1
 0 <= x607 <= 1
 0 <= x608 <= 1
 0 <= x609 <= 1
 0 <= x610 <= 1
 0 <= x611 <= 1
 0 <= x612 <= 1
 0 <= x613 <= 1
 0 <= x614 <= 1
 0 <= x615 <= 1
 0 <= x616 <= 1
 0 <= x617 <= 1
 0 <= x618 <= 1
 0 <= x619 <= 1
 0 <= x620 <= 1
 0 <= x621 <= 1
 0 <= x622 <= 1
 0 <= x623 <= 1
 0 <= x624 <= 1
 0 <= x625 <= 1
 0 <= x626 <= 1
 0 <= x627 <= 1
 0 <= x628 <= 1
 0 <= x629 <= 1
 0 <= x630 <= 1
 0 <= x631 <= 1
 0 <= x632 <= 1
 0 <= x633 <= 1
 0 <= x634 <= 1
 0 <= x635 <= 1
 0 <= x636 <= 1
 0 <= x637 <= 1
 0 <= x638 <= 1
 0 <= x639 <= 1
 0 <= x640 <= 1
 0 <= x641 <= 1
 0 <= x642 <= 1
 0 <= x643 <= 1
 0 <= x644 <= 1
 0 <= x645 <= 1
 0 <= x646 <= 1
 0 <= x647 <= 1
 0 <= x648 <= 1
 0 <= x649 <= 1
 0 <= x650 <= 1
 0 <= x651 <= 1
 0 <= x652 <= 1
 0 <= x653 <= 1
 0 <= x654 <= 1
 0 <= x655 <= 1
 0 <= x656 <= 1
 0 <= x657 <= 1
 0 <= x658 <= 1
 0 <= x659 <= 1
 0 <= x660 <= 1
Binaries
 x601  x602  x603  x604  x605  x606  x607  x608  x609  x610  x611  x612  x613 
 x614  x615  x616  x617  x618  x619  x620  x621  x622  x623  x624  x625  x626 
 x627  x628  x629  x630  x631  x632  x633  x634  x635  x636  x637  x638  x639 
 x640  x641  x642  x643  x644  x645  x646  x647  x648  x649  x650  x651  x652 
 x653  x654  x655  x656  x657  x658  x659  x660 
End
